60

 0   1   2   3   1   2   3   4   2   3   4   5   3   4   5   6   4   5   6   7   5   6   7   8   6   7   8   9   7   8   9  10   8   9  10  11   9  10  11  12  10  11  12  13  11  12  13  14  12  13  14  15  13  14  15  16  14  15  16  17  
 1   0   1   2   2   1   2   3   3   2   3   4   4   3   4   5   5   4   5   6   6   5   6   7   7   6   7   8   8   7   8   9   9   8   9  10  10   9  10  11  11  10  11  12  12  11  12  13  13  12  13  14  14  13  14  15  15  14  15  16  
 2   1   0   1   3   2   1   2   4   3   2   3   5   4   3   4   6   5   4   5   7   6   5   6   8   7   6   7   9   8   7   8  10   9   8   9  11  10   9  10  12  11  10  11  13  12  11  12  14  13  12  13  15  14  13  14  16  15  14  15  
 3   2   1   0   4   3   2   1   5   4   3   2   6   5   4   3   7   6   5   4   8   7   6   5   9   8   7   6  10   9   8   7  11  10   9   8  12  11  10   9  13  12  11  10  14  13  12  11  15  14  13  12  16  15  14  13  17  16  15  14  
 1   2   3   4   0   1   2   3   1   2   3   4   2   3   4   5   3   4   5   6   4   5   6   7   5   6   7   8   6   7   8   9   7   8   9  10   8   9  10  11   9  10  11  12  10  11  12  13  11  12  13  14  12  13  14  15  13  14  15  16  
 2   1   2   3   1   0   1   2   2   1   2   3   3   2   3   4   4   3   4   5   5   4   5   6   6   5   6   7   7   6   7   8   8   7   8   9   9   8   9  10  10   9  10  11  11  10  11  12  12  11  12  13  13  12  13  14  14  13  14  15  
 3   2   1   2   2   1   0   1   3   2   1   2   4   3   2   3   5   4   3   4   6   5   4   5   7   6   5   6   8   7   6   7   9   8   7   8  10   9   8   9  11  10   9  10  12  11  10  11  13  12  11  12  14  13  12  13  15  14  13  14  
 4   3   2   1   3   2   1   0   4   3   2   1   5   4   3   2   6   5   4   3   7   6   5   4   8   7   6   5   9   8   7   6  10   9   8   7  11  10   9   8  12  11  10   9  13  12  11  10  14  13  12  11  15  14  13  12  16  15  14  13  
 2   3   4   5   1   2   3   4   0   1   2   3   1   2   3   4   2   3   4   5   3   4   5   6   4   5   6   7   5   6   7   8   6   7   8   9   7   8   9  10   8   9  10  11   9  10  11  12  10  11  12  13  11  12  13  14  12  13  14  15  
 3   2   3   4   2   1   2   3   1   0   1   2   2   1   2   3   3   2   3   4   4   3   4   5   5   4   5   6   6   5   6   7   7   6   7   8   8   7   8   9   9   8   9  10  10   9  10  11  11  10  11  12  12  11  12  13  13  12  13  14  
 4   3   2   3   3   2   1   2   2   1   0   1   3   2   1   2   4   3   2   3   5   4   3   4   6   5   4   5   7   6   5   6   8   7   6   7   9   8   7   8  10   9   8   9  11  10   9  10  12  11  10  11  13  12  11  12  14  13  12  13  
 5   4   3   2   4   3   2   1   3   2   1   0   4   3   2   1   5   4   3   2   6   5   4   3   7   6   5   4   8   7   6   5   9   8   7   6  10   9   8   7  11  10   9   8  12  11  10   9  13  12  11  10  14  13  12  11  15  14  13  12  
 3   4   5   6   2   3   4   5   1   2   3   4   0   1   2   3   1   2   3   4   2   3   4   5   3   4   5   6   4   5   6   7   5   6   7   8   6   7   8   9   7   8   9  10   8   9  10  11   9  10  11  12  10  11  12  13  11  12  13  14  
 4   3   4   5   3   2   3   4   2   1   2   3   1   0   1   2   2   1   2   3   3   2   3   4   4   3   4   5   5   4   5   6   6   5   6   7   7   6   7   8   8   7   8   9   9   8   9  10  10   9  10  11  11  10  11  12  12  11  12  13  
 5   4   3   4   4   3   2   3   3   2   1   2   2   1   0   1   3   2   1   2   4   3   2   3   5   4   3   4   6   5   4   5   7   6   5   6   8   7   6   7   9   8   7   8  10   9   8   9  11  10   9  10  12  11  10  11  13  12  11  12  
 6   5   4   3   5   4   3   2   4   3   2   1   3   2   1   0   4   3   2   1   5   4   3   2   6   5   4   3   7   6   5   4   8   7   6   5   9   8   7   6  10   9   8   7  11  10   9   8  12  11  10   9  13  12  11  10  14  13  12  11  
 4   5   6   7   3   4   5   6   2   3   4   5   1   2   3   4   0   1   2   3   1   2   3   4   2   3   4   5   3   4   5   6   4   5   6   7   5   6   7   8   6   7   8   9   7   8   9  10   8   9  10  11   9  10  11  12  10  11  12  13  
 5   4   5   6   4   3   4   5   3   2   3   4   2   1   2   3   1   0   1   2   2   1   2   3   3   2   3   4   4   3   4   5   5   4   5   6   6   5   6   7   7   6   7   8   8   7   8   9   9   8   9  10  10   9  10  11  11  10  11  12  
 6   5   4   5   5   4   3   4   4   3   2   3   3   2   1   2   2   1   0   1   3   2   1   2   4   3   2   3   5   4   3   4   6   5   4   5   7   6   5   6   8   7   6   7   9   8   7   8  10   9   8   9  11  10   9  10  12  11  10  11  
 7   6   5   4   6   5   4   3   5   4   3   2   4   3   2   1   3   2   1   0   4   3   2   1   5   4   3   2   6   5   4   3   7   6   5   4   8   7   6   5   9   8   7   6  10   9   8   7  11  10   9   8  12  11  10   9  13  12  11  10  
 5   6   7   8   4   5   6   7   3   4   5   6   2   3   4   5   1   2   3   4   0   1   2   3   1   2   3   4   2   3   4   5   3   4   5   6   4   5   6   7   5   6   7   8   6   7   8   9   7   8   9  10   8   9  10  11   9  10  11  12  
 6   5   6   7   5   4   5   6   4   3   4   5   3   2   3   4   2   1   2   3   1   0   1   2   2   1   2   3   3   2   3   4   4   3   4   5   5   4   5   6   6   5   6   7   7   6   7   8   8   7   8   9   9   8   9  10  10   9  10  11  
 7   6   5   6   6   5   4   5   5   4   3   4   4   3   2   3   3   2   1   2   2   1   0   1   3   2   1   2   4   3   2   3   5   4   3   4   6   5   4   5   7   6   5   6   8   7   6   7   9   8   7   8  10   9   8   9  11  10   9  10  
 8   7   6   5   7   6   5   4   6   5   4   3   5   4   3   2   4   3   2   1   3   2   1   0   4   3   2   1   5   4   3   2   6   5   4   3   7   6   5   4   8   7   6   5   9   8   7   6  10   9   8   7  11  10   9   8  12  11  10   9  
 6   7   8   9   5   6   7   8   4   5   6   7   3   4   5   6   2   3   4   5   1   2   3   4   0   1   2   3   1   2   3   4   2   3   4   5   3   4   5   6   4   5   6   7   5   6   7   8   6   7   8   9   7   8   9  10   8   9  10  11  
 7   6   7   8   6   5   6   7   5   4   5   6   4   3   4   5   3   2   3   4   2   1   2   3   1   0   1   2   2   1   2   3   3   2   3   4   4   3   4   5   5   4   5   6   6   5   6   7   7   6   7   8   8   7   8   9   9   8   9  10  
 8   7   6   7   7   6   5   6   6   5   4   5   5   4   3   4   4   3   2   3   3   2   1   2   2   1   0   1   3   2   1   2   4   3   2   3   5   4   3   4   6   5   4   5   7   6   5   6   8   7   6   7   9   8   7   8  10   9   8   9  
 9   8   7   6   8   7   6   5   7   6   5   4   6   5   4   3   5   4   3   2   4   3   2   1   3   2   1   0   4   3   2   1   5   4   3   2   6   5   4   3   7   6   5   4   8   7   6   5   9   8   7   6  10   9   8   7  11  10   9   8  
 7   8   9  10   6   7   8   9   5   6   7   8   4   5   6   7   3   4   5   6   2   3   4   5   1   2   3   4   0   1   2   3   1   2   3   4   2   3   4   5   3   4   5   6   4   5   6   7   5   6   7   8   6   7   8   9   7   8   9  10  
 8   7   8   9   7   6   7   8   6   5   6   7   5   4   5   6   4   3   4   5   3   2   3   4   2   1   2   3   1   0   1   2   2   1   2   3   3   2   3   4   4   3   4   5   5   4   5   6   6   5   6   7   7   6   7   8   8   7   8   9  
 9   8   7   8   8   7   6   7   7   6   5   6   6   5   4   5   5   4   3   4   4   3   2   3   3   2   1   2   2   1   0   1   3   2   1   2   4   3   2   3   5   4   3   4   6   5   4   5   7   6   5   6   8   7   6   7   9   8   7   8  
10   9   8   7   9   8   7   6   8   7   6   5   7   6   5   4   6   5   4   3   5   4   3   2   4   3   2   1   3   2   1   0   4   3   2   1   5   4   3   2   6   5   4   3   7   6   5   4   8   7   6   5   9   8   7   6  10   9   8   7  
 8   9  10  11   7   8   9  10   6   7   8   9   5   6   7   8   4   5   6   7   3   4   5   6   2   3   4   5   1   2   3   4   0   1   2   3   1   2   3   4   2   3   4   5   3   4   5   6   4   5   6   7   5   6   7   8   6   7   8   9  
 9   8   9  10   8   7   8   9   7   6   7   8   6   5   6   7   5   4   5   6   4   3   4   5   3   2   3   4   2   1   2   3   1   0   1   2   2   1   2   3   3   2   3   4   4   3   4   5   5   4   5   6   6   5   6   7   7   6   7   8  
10   9   8   9   9   8   7   8   8   7   6   7   7   6   5   6   6   5   4   5   5   4   3   4   4   3   2   3   3   2   1   2   2   1   0   1   3   2   1   2   4   3   2   3   5   4   3   4   6   5   4   5   7   6   5   6   8   7   6   7  
11  10   9   8  10   9   8   7   9   8   7   6   8   7   6   5   7   6   5   4   6   5   4   3   5   4   3   2   4   3   2   1   3   2   1   0   4   3   2   1   5   4   3   2   6   5   4   3   7   6   5   4   8   7   6   5   9   8   7   6  
 9  10  11  12   8   9  10  11   7   8   9  10   6   7   8   9   5   6   7   8   4   5   6   7   3   4   5   6   2   3   4   5   1   2   3   4   0   1   2   3   1   2   3   4   2   3   4   5   3   4   5   6   4   5   6   7   5   6   7   8  
10   9  10  11   9   8   9  10   8   7   8   9   7   6   7   8   6   5   6   7   5   4   5   6   4   3   4   5   3   2   3   4   2   1   2   3   1   0   1   2   2   1   2   3   3   2   3   4   4   3   4   5   5   4   5   6   6   5   6   7  
11  10   9  10  10   9   8   9   9   8   7   8   8   7   6   7   7   6   5   6   6   5   4   5   5   4   3   4   4   3   2   3   3   2   1   2   2   1   0   1   3   2   1   2   4   3   2   3   5   4   3   4   6   5   4   5   7   6   5   6  
12  11  10   9  11  10   9   8  10   9   8   7   9   8   7   6   8   7   6   5   7   6   5   4   6   5   4   3   5   4   3   2   4   3   2   1   3   2   1   0   4   3   2   1   5   4   3   2   6   5   4   3   7   6   5   4   8   7   6   5  
10  11  12  13   9  10  11  12   8   9  10  11   7   8   9  10   6   7   8   9   5   6   7   8   4   5   6   7   3   4   5   6   2   3   4   5   1   2   3   4   0   1   2   3   1   2   3   4   2   3   4   5   3   4   5   6   4   5   6   7  
11  10  11  12  10   9  10  11   9   8   9  10   8   7   8   9   7   6   7   8   6   5   6   7   5   4   5   6   4   3   4   5   3   2   3   4   2   1   2   3   1   0   1   2   2   1   2   3   3   2   3   4   4   3   4   5   5   4   5   6  
12  11  10  11  11  10   9  10  10   9   8   9   9   8   7   8   8   7   6   7   7   6   5   6   6   5   4   5   5   4   3   4   4   3   2   3   3   2   1   2   2   1   0   1   3   2   1   2   4   3   2   3   5   4   3   4   6   5   4   5  
13  12  11  10  12  11  10   9  11  10   9   8  10   9   8   7   9   8   7   6   8   7   6   5   7   6   5   4   6   5   4   3   5   4   3   2   4   3   2   1   3   2   1   0   4   3   2   1   5   4   3   2   6   5   4   3   7   6   5   4  
11  12  13  14  10  11  12  13   9  10  11  12   8   9  10  11   7   8   9  10   6   7   8   9   5   6   7   8   4   5   6   7   3   4   5   6   2   3   4   5   1   2   3   4   0   1   2   3   1   2   3   4   2   3   4   5   3   4   5   6  
12  11  12  13  11  10  11  12  10   9  10  11   9   8   9  10   8   7   8   9   7   6   7   8   6   5   6   7   5   4   5   6   4   3   4   5   3   2   3   4   2   1   2   3   1   0   1   2   2   1   2   3   3   2   3   4   4   3   4   5  
13  12  11  12  12  11  10  11  11  10   9  10  10   9   8   9   9   8   7   8   8   7   6   7   7   6   5   6   6   5   4   5   5   4   3   4   4   3   2   3   3   2   1   2   2   1   0   1   3   2   1   2   4   3   2   3   5   4   3   4  
14  13  12  11  13  12  11  10  12  11  10   9  11  10   9   8  10   9   8   7   9   8   7   6   8   7   6   5   7   6   5   4   6   5   4   3   5   4   3   2   4   3   2   1   3   2   1   0   4   3   2   1   5   4   3   2   6   5   4   3  
12  13  14  15  11  12  13  14  10  11  12  13   9  10  11  12   8   9  10  11   7   8   9  10   6   7   8   9   5   6   7   8   4   5   6   7   3   4   5   6   2   3   4   5   1   2   3   4   0   1   2   3   1   2   3   4   2   3   4   5  
13  12  13  14  12  11  12  13  11  10  11  12  10   9  10  11   9   8   9  10   8   7   8   9   7   6   7   8   6   5   6   7   5   4   5   6   4   3   4   5   3   2   3   4   2   1   2   3   1   0   1   2   2   1   2   3   3   2   3   4  
14  13  12  13  13  12  11  12  12  11  10  11  11  10   9  10  10   9   8   9   9   8   7   8   8   7   6   7   7   6   5   6   6   5   4   5   5   4   3   4   4   3   2   3   3   2   1   2   2   1   0   1   3   2   1   2   4   3   2   3  
15  14  13  12  14  13  12  11  13  12  11  10  12  11  10   9  11  10   9   8  10   9   8   7   9   8   7   6   8   7   6   5   7   6   5   4   6   5   4   3   5   4   3   2   4   3   2   1   3   2   1   0   4   3   2   1   5   4   3   2  
13  14  15  16  12  13  14  15  11  12  13  14  10  11  12  13   9  10  11  12   8   9  10  11   7   8   9  10   6   7   8   9   5   6   7   8   4   5   6   7   3   4   5   6   2   3   4   5   1   2   3   4   0   1   2   3   1   2   3   4  
14  13  14  15  13  12  13  14  12  11  12  13  11  10  11  12  10   9  10  11   9   8   9  10   8   7   8   9   7   6   7   8   6   5   6   7   5   4   5   6   4   3   4   5   3   2   3   4   2   1   2   3   1   0   1   2   2   1   2   3  
15  14  13  14  14  13  12  13  13  12  11  12  12  11  10  11  11  10   9  10  10   9   8   9   9   8   7   8   8   7   6   7   7   6   5   6   6   5   4   5   5   4   3   4   4   3   2   3   3   2   1   2   2   1   0   1   3   2   1   2  
16  15  14  13  15  14  13  12  14  13  12  11  13  12  11  10  12  11  10   9  11  10   9   8  10   9   8   7   9   8   7   6   8   7   6   5   7   6   5   4   6   5   4   3   5   4   3   2   4   3   2   1   3   2   1   0   4   3   2   1  
14  15  16  17  13  14  15  16  12  13  14  15  11  12  13  14  10  11  12  13   9  10  11  12   8   9  10  11   7   8   9  10   6   7   8   9   5   6   7   8   4   5   6   7   3   4   5   6   2   3   4   5   1   2   3   4   0   1   2   3  
15  14  15  16  14  13  14  15  13  12  13  14  12  11  12  13  11  10  11  12  10   9  10  11   9   8   9  10   8   7   8   9   7   6   7   8   6   5   6   7   5   4   5   6   4   3   4   5   3   2   3   4   2   1   2   3   1   0   1   2  
16  15  14  15  15  14  13  14  14  13  12  13  13  12  11  12  12  11  10  11  11  10   9  10  10   9   8   9   9   8   7   8   8   7   6   7   7   6   5   6   6   5   4   5   5   4   3   4   4   3   2   3   3   2   1   2   2   1   0   1  
17  16  15  14  16  15  14  13  15  14  13  12  14  13  12  11  13  12  11  10  12  11  10   9  11  10   9   8  10   9   8   7   9   8   7   6   8   7   6   5   7   6   5   4   6   5   4   3   5   4   3   2   4   3   2   1   3   2   1   0  

 0   2  89   0   0   0   0  14  48   0  41   0   0  20   0   0   7  83  80  30   0   0   0  30  16   0  14   0   0   0   0   0   3   0   0   0  70   0   0   0   0   0   0   0  25   0   0   0   1   1   8   5   0  12   0  24   0   0   0   0  
 0   0   0   0   0  29  76  45  10   0  94   0   0   0   0   0   0   0   0   0   0   0   0   9   0   0   0   5  82   0  30   0   0   0  21   0  26   0   0   0   0   0   0   1   0   0   0   0   0   9   0   0  48   0   0  10   2  91  78   0  
59   0   0   1   0  15  16   0   0   0  91  61  99  91   0   0  35   0  42   0   4   4   0   0   0   0   0   0   0   0   0   0   0  99   0   2   0   0  70  21   0   0   0   0   0   0   0   0   0   5   0   0   0  43   0   0   0   0   0   0  
 0   0   0   0   0   0   0   0   0  29   0   0   0  33  66  89   0  52   0   7   0   1  97   0   0  34   0   3   3   0   0   0   0   5   0   0  19   1  29   9  43   0   0  26   0   0   0   0   0  40   0   0  60   0   0   0   0   0   0   0  
 0  78   0   0   0   0   0   0  14   0   2  40   0  77   1   0   0  65   0   0   0   0  43  21  68  73  43  65   7  18   0  61   0  22   6   0  44   0   1   2  70   0   1   0   0   0   0  29   0   0   0   0   4   0   1  36   0   0  12   0  
29  13   0   0  65   0  11  50  39   0   5  83   0   1  21   0   0  91   1   0   0  83   0  18   0  17  80   0  44   0   0  35   0  18  55  10   0  44   0   0   0  77   0   0   0  48   0   0   8  60   0   1  87   0   0  68   0  42   0  55  
 0  62   0  47   0   0   0   0   0   0   0   0   0   0   0   0   0   1   0  66   0   0   0   1   0   0   0  12   1   0   3   0  54   0   0   0   0  79   0  10   0   0   0   0   6  26   0   0  14   0  28   0   0   0   0   0   2   0   0   0  
 5  11   0   1   0   0   0   0   0   0   0  40   0   0   0   0   0  57   0  95   1   0  43   0  41   0  89  45   0   0  46  11  23   0   0  55   0  54  88   0   0   0   0   0   0   0   0  80   0   1  11   0   0   0   0   0   0   0   0   0  
 0   2   0  21  84  44   0   7   0   1   0   0  57  33   0   0   1   0   0   5  13  88   0  56   0  31   0   5   0   0   0   6   1   0   0   1  78   0   0   0   0   1  48   0   0   0  93   0   0   0   0   0  89   0  80   0   0   0   0   0  
 0   0   0   0   0   0   0   0   0   0  43   0   9   0  34   0   0   0   0   5   0  23  97   0   0   0   0   0   0  77  63   0   9   0   0   0  83   0   0   0   0   8   0   7  65   1  38   0   0   0   3   0   0   0  81  77  57   0  22   0  
 0   0  67  21   0   1   1   0   0  17   0   0   0   0  13   0   0   0  36   0   0   0   0  42   0   0  91   0   0  46   0   0   0   0   0   0  23  85   3   0  24  24   0  94   0   0   0   0   1   0   6   0  92   0   0  43   0   0  44   1  
 0  26   0   0   0  45   0  17   0   0   0   0   0   0  16   0  24   0   0   0   0  70   0   0  75   0   0   0   0   0   0  56  55   0  16   0   0   0   0   0   0  95   0   0  31   0   0  93   7   0   0   0   3   0   1   6   0  76  94   1  
 0  88   0   0   0   0   0   1  79   0  57   0   0   0   0  23  49   0  10  70  96   0   0  26   0   0  63  95   0   0   2   0   9  70   0   0  40  41   0   0   0   0   0   0   0   0   0   5   0   0   0   0   0  33  96   0  14   0   1   0  
 1  13   0  69  39   0   0   0   1  17   0  69   0   0   0  62  15   8   0   0   0   1  23   0   0  30   0   0   0   0   0   0  56   0   0   0  73   0  80   1   0   0  47   0  41  10   0   0   0   0   0   0  60   0   0   0   0   0   0  69  
 0   0   0   2   0   0  39   0   0   0   0   0   0  58   0   0   0   0   0   0  13   1   0  22   2  39   0   0   0  12   0  16  42   0  19   5   0  73   0   4   0   0  28   0   0   6   0   1   0   0  87  15   0   0   5   0  37   0   0   0  
 0   0   0   0   0   0  22   0   0   5  73   0   0   0   0   0   0  67   0   0   0  81   0   0   0  66   0   0  88  99   0   0   0  12   0   0   0  12   4   0   0   0  19  33   0   0   0   0   0  61   0   0  33  16  35  25   0   0   2   0  
64   0   0   0   4   0   2  40   6   0   0   0   0   0   0   8   0   0   0   1   0   0   0   1   0   9   0   0   0   0   0   0   0   2   0   1   0   3   0   0   0   0   0   0  29   0   0   0  43   0   0   0   0   0   7   0   0   1  74   1  
 0  45   0  30   0   3  84  25  93   6   0  52   8   0   0   0   0   0  31  70   0   0   0   0   0   0  21   0   0   0  14  80   0   0   0   0   0   0   4   0   0   0   0  16   0   0  73  19   0   0   0  12   0   0   0   0   0   0  90  65  
 0  20   0   1   1  70  18   1  80   0   0  76   1  13   0   0   0   0   0  10   0  12   0  44   0   0   0  27   0   0   0   0   0  51   1   0  44  30   0   0   0  65   0   0  11   0   0   0  98   3   0  51   0   0   0  15   1   0   0  11  
 0   0   0   0   0  57   0  23   0  42   0   3   0  21  50   0   0   8   0   0   0   0  36   0   0   0  55   0   0   0  18   0   0   0   0   0   0  32   0   0   0  76   0  86  20   0   9   1   0   0   0   0   0  10  46  39   0  26   0   1  
16   0   4  14   0   0   0   0   0  33   0   0   0  49   0   0   3   0   0  84   0  16   1  18  41   0   0   1   0   3   0   0   0  69   0  79  60   7   1   0   4   0   0   0   0   0   0   5   0   0  91   0   0   1  68   0  27  32   0   0  
 0   0   0   0   0   0   0   0  17   1   0   0   0   0  84   0   0  36   0  11   5   0   0   0   0   0   0   0  46  90   5   0   0   0   0   4  52   0   0   0   0   0  47   0   0   0   0  75   0   0   0   0  84   0   0  99   0  32  74  39  
30   0   0   2   0   0  21   1  40  14   0   1   0   0   0   0  20  94   0   4   0   0   0   0  71  78   0   0  33  13   3   0   0   0   1   7  30   0   0   0   0   1   0  75  28  82   0   0   0   0   0  93   0  76  66   0   0  12   0  72  
 0   0   0   0  12   0   0  83   0   0   0   0  81   0   0   0  28  25   0   0   0  62   0   0   0   4   0   1   0  45   0   0   0   0   0   7   0  50  81  35   0   0  10  95   1  34   0   0  90  75   0   0   0   0  18   0   0   0   0   0  
21   4   0   1  39   1   0   0   0  43   0   0   0   6  36   0   3  16   0  42   0   0   0   0   0   0   0   0   0   0  41   0  72   0  49  81   0   0   1   0   0   0  11   0   0   0   0   0   0   0   7   0  95  95  17  45  48  86   0   0  
 0   0  76   0   0   0  37   0   9   1  47  53  31   0   0   0   0   0   0  43   0   0   0   0   0   0  94   0   0   0   0  64  38   0   0   0   0   0   0  76   0  68   1   0   0  40   0   0   7   1   0   0   0   0   0  10   0   0  25   0  
 0   0   0  17   1   0   0  31   0  34   0   0   0   0  11   0   0  90  10   0   0   0  34  89  73   0   0   0   0   1   1   0   2   0   0   0  35   4   0   0   0  17   0  49  35   0  84  32  17  10   0   0   0   0  40   0   0   4   0  36  
47  88  90  98   0   0   0   0   5   9   0   0  60   0  79   0  13   0   0   0   0  26  33   0   0   0   0   0   0  61   0   1   0  72   0  28   0   0   0  11   0   5   0   0   0   0  81   0  54   0  16   0   0   5  28   2   0   0  90   0  
 0   0   0  36   0   0  49   0  68  70  71   0   0   0   0  97   0   1   0   0  16   0  10   0   0  28   0   0   0  62   0   0   0  20   0  16   0   0  77   0   0   0   0   0   0   0   0   0  15   0  48  23   0   0  12   5  68  53   0  62  
 4  21  75  61   0   0   0  17  41  88   1   0   0   6   0   0  11   0  20  56   0  63  14   0   0   0  31   0   0   0   0   0   0   0   0   0   5  48   0   0  19   0   0  91   0  43   0   0   0  59  68   0   0   0   5  62   0   0  11   0  
30   0   0   2   0   0   2   0   0   0   0   8   1  60   0   0   1   0   0  34   0  13   0   0   0   0   0   0   0   0   0   0   0   0  80  16   0  27  38  13  62  10  48   0   0  32   0   0  55  52   0   0  18  17   0   0   5  47   0   3  
 1  43  17  80   0   0   0   0  56   0   0   0   0  25   2  12   0   0   0   0   0  83  91   1   0   0  17   0   0   3   0   0   0   1   0  85  93   0  23   0   0  66   0   0  37  59  11   0  65   0  79   0   0   0   0   0   6  19  68   0  
 0  78   0   0  18  11   0   0   0   0   0  50   0   0   0  74   0   0   0   6   0   0   0  21  31   0   0  14  41  20  32   0   0  40  24   0  49  25   0   1  82  83   0   0  22   0  98  22   9   0  17  16   0   0   0   0   0   0   2  77  
 0   0  19  14   0   0   0   9   0   0   0   0   0   0   0   0   0   0  63   0  14   0   0   0  79   0   0   1   0   0   8   0   0   0   3   0   0   0   0   0   1  46   1  17   0  47   0  81   0  26   0  61   0   0  41  83   0   0   1   0  
 0  28  89   0   0   0  40   0   0   1   7  25  79   6   0   0   2   0   0  42   0   0   0   3   0   0   0  85  78  20   0   0   0   0   0  80   0  38   0   0  23   0  12   0  83   0  22   0  55   0  91   0   0   0   0   8   7   0  94   0  
 0  40  23   0   0  64   1   8   0   0  57   0   0   0  57  97   0   0   0  90   0   0  39   3   0   2  42  24  40   1   0   0   0   0  39   0   0   0   0  31   0   0   0  28   0   0   0  47  74  28  75   3  15   0  15   1  63   0   0  24  
 0   0   5   6   0   0   0   0   0   0  55   0   0   0   0   4   0   0   1   0   0   1   0   0   0   1   0   0   0  35   0  56   0  57  98  79   0   0   0   5   0   0   4   0   0   0   0   0  36  10   0  84  90  10   0   0   0  61   0   9  
 0   0   6   1   0  49  47   0   0   0   0   0   0   0   0  65   0   0   0   0   0   1   0   0   0   2  12   0   1  43   0   0   0  50  49   0   0   0   0   0   0   0   6   0   4   0  77   0  70   0   0  87  63  99   2   1  66   0   4   0  
 0   0  81   4   0   0   0   0   1   1   0   0   0  13   0   0   0   0   0  27   0   6   0  63   4   0   0   0   0   0   0   6   0  14   1   6   2  64   0   0   0  46  25   0   0  92   0   0   1  23   0   0   0   0  50   0   0  61   0   0  
 0   0  38  11   0  32   0   0  50   0   3  49   0  25   0   0   0   0   0  43   6   0   0   0   0   0   0   0  12  29   0   3   0  82  54   0   0   0   6   0  91   1  26   0   0  55   1   0   0  12   0   0   0   0   7   3   0   8   0   0  
11   0  15   0   0  66  90   7   0  88   0   0  15   0   0   0  31  62  67  30   0   0  46   7  10   0   7  33   4  22  44   0   0   4   0   1   0   0  13   0   0   0   0   0   0   0   0   9   0   0   0   0  31   0   0   0   0  16  92   0  
38   0   0   0  88   0   0   0   0   4   0   0   0   0   0  55   6  32   1   0   0   0   0   0  66   0   0   0   0  72   0  14  63  26  61   4   0  41   0  31  26   0  74   0  13   1   0  86   1   0   0  13   0   0   0   0   0   0   0   0  
 7   0  69   0   1   1  83   0   0  94  23   1  99   0   0   0  52   1  30   0   0   0   0   0   0  88   0  11   0   1  74  16   0   0   0   0  82   0   0   0  14  14   0   0  10  33   0   0  52   0   0  44   0   0   0   0   0  19   0  98  
83   0   0  71  58  22  62   0   0   0  50  26   0   0   0   4   0   0   0   0   0  29   0   0   0   0   0   0   7   0   0   0   0  24   6   0  43   0  48   0   0   8  91   0   0  37   0   0   0   0  20  18   0  43   0  10   0  97  30   0  
 0  80   0   0   0  51   0  48   0  79   0  51  79  24   0  38  19  83   0   0   0   1  85  92  93   0   0   0   0   1   0   0   0   0   0   0  74  46   0   0   0   0   0   1   0   0   0   0   0   0   0   0   0  25  59   0   0   0  59   0  
45  11   0   0   0   0   1  69  18   0   0   0   0   1   0   0   0  80   0  69   0   1  21   0   0  98  17  20   0  19  24  15   0  81  32   0  72   0   0   0  99  65   0   0   0   0  78  18   5  48   0   0   6  98   0   0   0   0   0   0  
25   0   0   0   2   0  12   0   2   1  96  11   0  92   0   0  47  50  72   0  33  73   0  84   0   0   0   0  63  49   0  88   0   1   9   1  41   0   0  24   0  22   0   0   0  61   0   0   0  10  57   0  18   0   0  72   0   0   5   0  
16   0   0  81   0   0   0   0   1   0   0   0  91  89   0   0   0  50   0   0  54   0  69  21   0  20   0  83   0  17   1   0   0   0   0  38  23  23  23   0  47   1   0   0   0   0   8   0   1  29  79  30   0   0   0   0   0   0   5   0  
 0   0   0  89   0   0  60  59   0   0   0   0  32   0  14   1   0   0   0  49   6  65   0  19  96  22   0   0  59  34  52   0  16   0  12   0  49   0   0  34  48   0   0   0   0   0   0   0   0   0   0   0  71  21  25   0   0   0   0  39  
 7   0  35  25   0   0   4   0   0  34   0  81   0  41   0   0   0  31   0   0  51   0  89  36   0   0  97   0   0   3   0  93   0  97   0   0  52  66  87  11   0   0   0  53   0   0   9   0   0   0  64   0   0   0   2   0   0   5   0   0  
 0   0   1   0  57   0   0   0  51   0   0  10   1   1  27   0  18   0   0  11   0   0   8   9   0   0   0   0  88   0   1   0   0   0   0   0   0  42  25   0   6  66   0   0  33  34   0   0   0   0   0   0   0   0   0   0   0   0   0  84  
47   0   0   0  40  27   0  98   0   6  20   0   1   0   0  45   0   0   0  78  47   2   0   0  38  45  64   0   0   8   6   0   0  20   0  36   0  22   0  72   0  39   0   0   3   0  95   0  80  78  23   0   1   0  51  22   1   0  18   9  
 0  60   0   0  34  59   0  96   0   0   0   0  41   0  58  12   8   0   0   0  86  15  27   0  18   0   4   0   0  45   0   0   0   0  77   0   0  99  92   0   0   0   0   0  35   0   0  34   0   0   0   0   0  56  31  59   0   0  99   0  
53  16  33  93   0   0   0   0   0   0   0   0  79   0   0   0   7  75   0   0   0  92   0   0   9   0  36   4   0   0  15  55   0   0   0   0   1   0   2   0   0   0   0  84  36   9   0  16  13   0   0   0   0   0   0  75   0   0   0   0  
 0   0   0   0   0   1   0   0   0  86   0   0  21  52   0   0  95  26   0  20   0   0   0  56   0   1   0  15   1  44   0  11   0   1  31   0   0   0   0   0  14   3   0  24  63   0   0   0  97  35   0   8   0   0   0   0   1  36  44   0  
 0   0  37   0  68   0   0   0  11   0   0   0   0   0   0   0   0  99  30   0   0  54   0   0   0  58   0   0   0   0  31   0   0   0  18   0   1   0   0  92   0   0   0   2   4   1  13   0   0   0  93   0  33   0   0   0  82  20  12   0  
 0  40  20  52   0   0   0  24  73   0   0   0   0   0   0   0   0   0  82   0   0  82   0   0   0   1   0  47  74   0  20   0   0   0   0   0  30  30   0   0   0   5   0   0   0   1   0   3  64  75  76   0   0   0   0  80   0   7   0   0  
 0   0   0  59   0   0   0   0   0  52   0   0  24  57  19   4  24   7   0   0  58   0   1   0   0   0   0  30   0   0   0  40  12  57   2  56   1   0   0   0  82  36   0   0   1   0   0   2   4   9   0   0   0   0   0   0  92   0   0   0  
14  96   0   0  79  68  24   0   7   0   0   0   0  58   0   0   1   1   0   0   0  45   0   0  60  76  41   0   0   0   1   0   1   0   0   0   0  59  47  45   0   0  25  26   0   0   0   0   0  38   7   0  38  19   0  17   0   0   0   0  
 0   0   0  38   0   0  74   1   0   0   0   0   3   0   1  54  12   0   8   1   0  42   0   0  26   0   1  72   1  22   0   0  84   0   0  10   0   0   0  27   0  42  96   0  11   1   0  82   0   0   0   0  65   0   8   0   0  32   4   0  
